words_hard_train/3873.qaiger
aag 127 24 0 1 103
2
4
8
10
22
24
36
38
50
52
64
66
78
80
126
134
136
162
172
180
200
210
218
236
254
6 2 4
12 9 11
14 8 10
16 13 15
18 6 16
20 19 15
26 23 25
28 22 24
30 27 29
32 21 30
34 33 29
40 37 39
42 36 38
44 41 43
46 35 44
48 47 43
54 51 53
56 50 52
58 55 57
60 49 58
62 61 57
68 65 67
70 64 66
72 69 71
74 63 72
76 75 71
82 79 81
84 78 80
86 83 85
88 76 87
90 77 86
92 89 91
94 62 73
96 95 75
98 48 59
100 99 61
102 34 45
104 103 47
106 3 5
108 106 17
110 109 19
112 20 31
114 113 33
116 111 115
118 105 116
120 101 118
122 97 120
124 93 122
128 125 127
130 124 126
132 129 131
138 134 136
140 135 137
142 139 141
144 91 85
146 143 144
148 142 145
150 147 149
152 133 150
154 132 151
156 153 155
158 92 123
160 159 125
164 161 163
166 160 162
168 165 167
170 107 7
174 171 173
176 7 17
178 177 19
182 179 180
184 178 181
186 183 185
188 174 186
190 170 172
192 190 187
194 189 193
196 104 117
198 197 119
202 199 200
204 195 203
206 100 119
208 207 121
212 209 210
214 96 121
216 215 123
220 217 218
222 213 221
224 204 222
226 216 219
228 208 211
230 227 229
232 110 114
234 233 117
238 234 237
240 235 236
242 239 241
244 198 201
246 242 245
248 230 246
250 224 248
252 169 250
254 157 252
i0 1 x1[0]
i1 2 y1[0]
i2 1 x1[1]
i3 2 y1[1]
i4 1 x1[2]
i5 2 y1[2]
i6 1 x1[3]
i7 2 y1[3]
i8 1 x1[4]
i9 2 y1[4]
i10 1 x1[5]
i11 2 y1[5]
i12 1 x1[6]
i13 2 y1[6]
i14 2 y2[7]
i15 1 x1[7]
i16 2 y1[7]
i17 2 y2[6]
i18 2 y2[0]
i19 2 y2[1]
i20 2 y2[3]
i21 2 y2[4]
i22 2 y2[5]
i23 2 y2[2]
o0 bool[0]
c
simplified
  ==
    invert
      2 y2
    subtract
      add
        1 x1
        2 y1
      1
