words_hard_train/3873.qaiger.qdimacs
p cnf 127 310
a 32 1 67 4 39 11 18 25 0
e 2 3 5 6 7 8 9 10 12 13 14 15 16 17 19 20 21 22 23 24 26 27 28 29 30 31 33 34 35 36 37 38 40 41 42 43 44 45 46 47 48 49 50 51 52 53 54 55 56 57 58 59 60 61 62 63 64 65 66 68 69 70 71 72 73 74 75 76 77 78 79 80 81 82 83 84 85 86 87 88 89 90 91 92 93 94 95 96 97 98 99 100 101 102 103 104 105 106 107 108 109 110 111 112 113 114 115 116 117 118 119 120 121 122 123 124 125 126 127 0
-1 -2 3 0
1 -3 0
2 -3 0
4 5 6 0
-4 -6 0
-5 -6 0
-4 -5 7 0
4 -7 0
5 -7 0
6 7 8 0
-6 -8 0
-7 -8 0
-3 -8 9 0
3 -9 0
8 -9 0
9 7 10 0
-9 -10 0
-7 -10 0
11 12 13 0
-11 -13 0
-12 -13 0
-11 -12 14 0
11 -14 0
12 -14 0
13 14 15 0
-13 -15 0
-14 -15 0
10 -15 16 0
-10 -16 0
15 -16 0
16 14 17 0
-16 -17 0
-14 -17 0
18 19 20 0
-18 -20 0
-19 -20 0
-18 -19 21 0
18 -21 0
19 -21 0
20 21 22 0
-20 -22 0
-21 -22 0
17 -22 23 0
-17 -23 0
22 -23 0
23 21 24 0
-23 -24 0
-21 -24 0
25 26 27 0
-25 -27 0
-26 -27 0
-25 -26 28 0
25 -28 0
26 -28 0
27 28 29 0
-27 -29 0
-28 -29 0
24 -29 30 0
-24 -30 0
29 -30 0
30 28 31 0
-30 -31 0
-28 -31 0
32 33 34 0
-32 -34 0
-33 -34 0
-32 -33 35 0
32 -35 0
33 -35 0
34 35 36 0
-34 -36 0
-35 -36 0
31 -36 37 0
-31 -37 0
36 -37 0
37 35 38 0
-37 -38 0
-35 -38 0
39 40 41 0
-39 -41 0
-40 -41 0
-39 -40 42 0
39 -42 0
40 -42 0
41 42 43 0
-41 -43 0
-42 -43 0
-38 43 44 0
38 -44 0
-43 -44 0
38 -43 45 0
-38 -45 0
43 -45 0
44 45 46 0
-44 -46 0
-45 -46 0
-31 36 47 0
31 -47 0
-36 -47 0
47 37 48 0
-47 -48 0
-37 -48 0
-24 29 49 0
24 -49 0
-29 -49 0
49 30 50 0
-49 -50 0
-30 -50 0
-17 22 51 0
17 -51 0
-22 -51 0
51 23 52 0
-51 -52 0
-23 -52 0
1 2 53 0
-1 -53 0
-2 -53 0
-53 8 54 0
53 -54 0
-8 -54 0
54 9 55 0
-54 -55 0
-9 -55 0
-10 15 56 0
10 -56 0
-15 -56 0
56 16 57 0
-56 -57 0
-16 -57 0
55 57 58 0
-55 -58 0
-57 -58 0
52 -58 59 0
-52 -59 0
58 -59 0
50 -59 60 0
-50 -60 0
59 -60 0
48 -60 61 0
-48 -61 0
60 -61 0
46 -61 62 0
-46 -62 0
61 -62 0
62 63 64 0
-62 -64 0
-63 -64 0
-62 -63 65 0
62 -65 0
63 -65 0
64 65 66 0
-64 -66 0
-65 -66 0
-67 -68 69 0
67 -69 0
68 -69 0
67 68 70 0
-67 -70 0
-68 -70 0
69 70 71 0
-69 -71 0
-70 -71 0
45 42 72 0
-45 -72 0
-42 -72 0
71 -72 73 0
-71 -73 0
72 -73 0
-71 72 74 0
71 -74 0
-72 -74 0
73 74 75 0
-73 -75 0
-74 -75 0
66 -75 76 0
-66 -76 0
75 -76 0
-66 75 77 0
66 -77 0
-75 -77 0
76 77 78 0
-76 -78 0
-77 -78 0
-46 61 79 0
46 -79 0
-61 -79 0
79 62 80 0
-79 -80 0
-62 -80 0
80 81 82 0
-80 -82 0
-81 -82 0
-80 -81 83 0
80 -83 0
81 -83 0
82 83 84 0
-82 -84 0
-83 -84 0
53 3 85 0
-53 -85 0
-3 -85 0
85 86 87 0
-85 -87 0
-86 -87 0
3 8 88 0
-3 -88 0
-8 -88 0
88 9 89 0
-88 -89 0
-9 -89 0
89 -90 91 0
-89 -91 0
90 -91 0
-89 90 92 0
89 -92 0
-90 -92 0
91 92 93 0
-91 -93 0
-92 -93 0
-87 -93 94 0
87 -94 0
93 -94 0
-85 -86 95 0
85 -95 0
86 -95 0
-95 93 96 0
95 -96 0
-93 -96 0
94 96 97 0
-94 -97 0
-96 -97 0
-52 58 98 0
52 -98 0
-58 -98 0
98 59 99 0
-98 -99 0
-59 -99 0
99 -100 101 0
-99 -101 0
100 -101 0
97 101 102 0
-97 -102 0
-101 -102 0
-50 59 103 0
50 -103 0
-59 -103 0
103 60 104 0
-103 -104 0
-60 -104 0
104 -105 106 0
-104 -106 0
105 -106 0
-48 60 107 0
48 -107 0
-60 -107 0
107 61 108 0
-107 -108 0
-61 -108 0
108 -109 110 0
-108 -110 0
109 -110 0
106 110 111 0
-106 -111 0
-110 -111 0
-102 -111 112 0
102 -112 0
111 -112 0
-108 109 113 0
108 -113 0
-109 -113 0
-104 105 114 0
104 -114 0
-105 -114 0
113 114 115 0
-113 -115 0
-114 -115 0
-55 -57 116 0
55 -116 0
57 -116 0
116 58 117 0
-116 -117 0
-58 -117 0
-117 118 119 0
117 -119 0
-118 -119 0
117 -118 120 0
-117 -120 0
118 -120 0
119 120 121 0
-119 -121 0
-120 -121 0
-99 100 122 0
99 -122 0
-100 -122 0
-121 122 123 0
121 -123 0
-122 -123 0
-115 -123 124 0
115 -124 0
123 -124 0
-112 -124 125 0
112 -125 0
124 -125 0
84 -125 126 0
-84 -126 0
125 -126 0
78 -126 127 0
-78 -127 0
126 -127 0
127 0
